(set-info :source |printed by MathSAT|)
(declare-fun call_firefly.garde3 () Bool)
(declare-fun call_firefly.ite16 () Int)
(declare-fun param_e3 () Bool)
(declare-fun call_firefly.ite11 () Int)
(declare-fun call_firefly.flby5 () Int)
(declare-fun call_firefly.dirty () Int)
(declare-fun param_e7 () Bool)
(declare-fun call_firefly.ite6 () Int)
(declare-fun call_firefly.ite3 () Int)
(declare-fun call_firefly.ite5 () Int)
(declare-fun shared () Int)
(declare-fun param_e4 () Bool)
(declare-fun call_firefly.garde8 () Bool)
(declare-fun call_firefly.ite26 () Int)
(declare-fun call_firefly.ite14 () Int)
(declare-fun call_firefly.ite25 () Int)
(declare-fun call_First.First () Int)
(declare-fun call_First.flby () Int)
(declare-fun call_firefly.ite32 () Int)
(declare-fun call_firefly.flby () Int)
(declare-fun dirty () Int)
(declare-fun call_firefly.ite17 () Int)
(declare-fun call_firefly.exclusive () Int)
(declare-fun call_firefly.ite28 () Int)
(declare-fun call_firefly.ite36 () Int)
(declare-fun call_firefly.ite34 () Int)
(declare-fun call_firefly.ite39 () Int)
(declare-fun call_firefly.ite19 () Int)
(declare-fun param_e1 () Bool)
(declare-fun call_firefly.ite21 () Int)
(declare-fun call_firefly.ite20 () Int)
(declare-fun call_excludes8.excludes () Bool)
(declare-fun call_firefly.ite38 () Int)
(declare-fun call_firefly.ite8 () Int)
(declare-fun _OK_ () Bool)
(declare-fun env () Bool)
(declare-fun call_firefly.ite () Int)
(declare-fun call_firefly.ite31 () Int)
(declare-fun call_firefly.ite15 () Int)
(declare-fun call_firefly.ite12 () Int)
(declare-fun call_firefly.ite24 () Int)
(declare-fun call_firefly.flby4 () Int)
(declare-fun param_e8 () Bool)
(declare-fun call_First2.First () Int)
(declare-fun call_Sofar.flby () Bool)
(declare-fun call_firefly.invalid () Int)
(declare-fun call_firefly.mem_invalid () Int)
(declare-fun call_firefly.ite23 () Int)
(declare-fun call_firefly.ite29 () Int)
(declare-fun call_firefly.ite2 () Int)
(declare-fun param_e5 () Bool)
(declare-fun call_First2.flby () Int)
(declare-fun call_firefly.ite22 () Int)
(declare-fun call_firefly.flby2 () Int)
(declare-fun call_firefly.ite9 () Int)
(declare-fun call_firefly.ite27 () Int)
(declare-fun call_firefly.garde6 () Bool)
(declare-fun call_firefly.ite10 () Int)
(declare-fun call_Sofar.Sofar () Bool)
(declare-fun call_firefly.ite18 () Int)
(declare-fun param_e6 () Bool)
(declare-fun flby () Bool)
(declare-fun call_firefly.shared () Int)
(declare-fun call_firefly.ite30 () Int)
(declare-fun call_firefly.ite13 () Int)
(declare-fun call_firefly.ite4 () Int)
(declare-fun procs () Int)
(declare-fun call_firefly.ite33 () Int)
(declare-fun call_firefly.ite7 () Int)
(declare-fun invalid () Int)
(declare-fun exclusive () Int)
(declare-fun param_i_invalid () Int)
(declare-fun call_firefly.flby3 () Int)
(declare-fun call_firefly.ite35 () Int)
(declare-fun call_firefly.ite40 () Int)
(declare-fun call_firefly.ite37 () Int)
(declare-fun param_e2 () Bool)
(define-fun .def_1248 () Bool (= call_First2.flby call_First2.First))
(define-fun .def_1246 () Bool (= call_First.flby call_First.First))
(define-fun .def_1244 () Bool (= call_Sofar.flby call_Sofar.Sofar))
(define-fun .def_1026 () Bool (not param_e2))
(define-fun .def_1007 () Bool (not param_e1))
(define-fun .def_1192 () Bool (and .def_1007 .def_1026))
(define-fun .def_1054 () Bool (not param_e3))
(define-fun .def_1193 () Bool (and .def_1054 .def_1192))
(define-fun .def_1079 () Bool (not param_e4))
(define-fun .def_1194 () Bool (and .def_1079 .def_1193))
(define-fun .def_1096 () Bool (not param_e5))
(define-fun .def_1195 () Bool (and .def_1096 .def_1194))
(define-fun .def_1114 () Bool (not param_e6))
(define-fun .def_1196 () Bool (and .def_1114 .def_1195))
(define-fun .def_915 () Bool (not param_e7))
(define-fun .def_1197 () Bool (and .def_915 .def_1196))
(define-fun .def_923 () Bool (not param_e8))
(define-fun .def_1233 () Bool (and .def_923 .def_1197))
(define-fun .def_1226 () Bool (and param_e1 .def_1026))
(define-fun .def_1227 () Bool (and .def_1054 .def_1226))
(define-fun .def_1228 () Bool (and .def_1079 .def_1227))
(define-fun .def_1229 () Bool (and .def_1096 .def_1228))
(define-fun .def_1230 () Bool (and .def_1114 .def_1229))
(define-fun .def_1231 () Bool (and .def_915 .def_1230))
(define-fun .def_1232 () Bool (and .def_923 .def_1231))
(define-fun .def_1234 () Bool (or .def_1232 .def_1233))
(define-fun .def_1219 () Bool (and .def_1007 param_e2))
(define-fun .def_1220 () Bool (and .def_1054 .def_1219))
(define-fun .def_1221 () Bool (and .def_1079 .def_1220))
(define-fun .def_1222 () Bool (and .def_1096 .def_1221))
(define-fun .def_1223 () Bool (and .def_1114 .def_1222))
(define-fun .def_1224 () Bool (and .def_915 .def_1223))
(define-fun .def_1225 () Bool (and .def_923 .def_1224))
(define-fun .def_1235 () Bool (or .def_1225 .def_1234))
(define-fun .def_1213 () Bool (and param_e3 .def_1192))
(define-fun .def_1214 () Bool (and .def_1079 .def_1213))
(define-fun .def_1215 () Bool (and .def_1096 .def_1214))
(define-fun .def_1216 () Bool (and .def_1114 .def_1215))
(define-fun .def_1217 () Bool (and .def_915 .def_1216))
(define-fun .def_1218 () Bool (and .def_923 .def_1217))
(define-fun .def_1236 () Bool (or .def_1218 .def_1235))
(define-fun .def_1208 () Bool (and param_e4 .def_1193))
(define-fun .def_1209 () Bool (and .def_1096 .def_1208))
(define-fun .def_1210 () Bool (and .def_1114 .def_1209))
(define-fun .def_1211 () Bool (and .def_915 .def_1210))
(define-fun .def_1212 () Bool (and .def_923 .def_1211))
(define-fun .def_1237 () Bool (or .def_1212 .def_1236))
(define-fun .def_1204 () Bool (and param_e5 .def_1194))
(define-fun .def_1205 () Bool (and .def_1114 .def_1204))
(define-fun .def_1206 () Bool (and .def_915 .def_1205))
(define-fun .def_1207 () Bool (and .def_923 .def_1206))
(define-fun .def_1238 () Bool (or .def_1207 .def_1237))
(define-fun .def_1201 () Bool (and param_e6 .def_1195))
(define-fun .def_1202 () Bool (and .def_915 .def_1201))
(define-fun .def_1203 () Bool (and .def_923 .def_1202))
(define-fun .def_1239 () Bool (or .def_1203 .def_1238))
(define-fun .def_1199 () Bool (and param_e7 .def_1196))
(define-fun .def_1200 () Bool (and .def_923 .def_1199))
(define-fun .def_1240 () Bool (or .def_1200 .def_1239))
(define-fun .def_1198 () Bool (and param_e8 .def_1197))
(define-fun .def_1241 () Bool (or .def_1198 .def_1240))
(define-fun .def_1242 () Bool (= call_excludes8.excludes .def_1241))
(define-fun .def_1190 () Bool (= call_firefly.flby call_firefly.mem_invalid))
(define-fun .def_1188 () Bool (= call_firefly.flby5 call_firefly.shared))
(define-fun .def_1186 () Bool (= call_firefly.flby4 call_firefly.exclusive))
(define-fun .def_1184 () Bool (= call_firefly.flby3 call_firefly.dirty))
(define-fun .def_1182 () Bool (= call_firefly.flby2 call_firefly.invalid))
(define-fun .def_1180 () Bool (= dirty call_firefly.dirty))
(define-fun .def_1177 () Bool (= invalid call_firefly.invalid))
(define-fun .def_1171 () Bool (<= invalid procs))
(define-fun .def_1169 () Bool (<= 0 invalid))
(define-fun .def_1163 () Int (+ invalid dirty))
(define-fun .def_1159 () Int (* (- 1) procs))
(define-fun .def_1164 () Int (+ .def_1159 .def_1163))
(define-fun .def_1165 () Int (+ shared .def_1164))
(define-fun .def_1166 () Int (+ exclusive .def_1165))
(define-fun .def_1167 () Bool (<= .def_1166 0))
(define-fun .def_1151 () Int (* (- 1) call_First2.First))
(define-fun .def_1152 () Int (+ dirty .def_1151))
(define-fun .def_1153 () Int (+ invalid .def_1152))
(define-fun .def_1154 () Int (+ shared .def_1153))
(define-fun .def_1155 () Int (+ exclusive .def_1154))
(define-fun .def_1156 () Bool (= .def_1155 0))
(define-fun .def_1157 () Bool (and flby .def_1156))
(define-fun .def_1168 () Bool (and .def_1157 .def_1167))
(define-fun .def_1170 () Bool (and .def_1168 .def_1169))
(define-fun .def_1172 () Bool (and .def_1170 .def_1171))
(define-fun .def_1139 () Bool (not env))
(define-fun .def_1173 () Bool (or .def_1139 .def_1172))
(define-fun .def_1174 () Bool (= _OK_ .def_1173))
(define-fun .def_1134 () Bool (= call_firefly.ite36 call_firefly.ite37))
(define-fun .def_1135 () Bool (or param_e7 .def_1134))
(define-fun .def_1131 () Bool (= call_firefly.ite37 call_firefly.ite34))
(define-fun .def_1132 () Bool (or .def_915 .def_1131))
(define-fun .def_1127 () Bool (= call_firefly.ite8 call_firefly.ite5))
(define-fun .def_1128 () Bool (or .def_915 .def_1127))
(define-fun .def_1124 () Bool (= call_firefly.ite7 call_firefly.ite8))
(define-fun .def_1125 () Bool (or param_e7 .def_1124))
(define-fun .def_1129 () Bool (and .def_1125 .def_1128))
(define-fun .def_1133 () Bool (and .def_1129 .def_1132))
(define-fun .def_1136 () Bool (and .def_1133 .def_1135))
(define-fun .def_1120 () Bool (= call_firefly.ite17 call_firefly.ite18))
(define-fun .def_1121 () Bool (or param_e6 .def_1120))
(define-fun .def_1117 () Bool (= call_firefly.ite15 call_firefly.ite18))
(define-fun .def_1118 () Bool (or .def_1114 .def_1117))
(define-fun .def_1113 () Bool (= call_firefly.ite9 call_firefly.ite4))
(define-fun .def_1115 () Bool (or .def_1113 .def_1114))
(define-fun .def_1109 () Bool (= call_firefly.ite9 call_firefly.ite8))
(define-fun .def_1111 () Bool (or .def_1109 param_e6))
(define-fun .def_1116 () Bool (and .def_1111 .def_1115))
(define-fun .def_1119 () Bool (and .def_1116 .def_1118))
(define-fun .def_1122 () Bool (and .def_1119 .def_1121))
(define-fun .def_1104 () Bool (= call_firefly.ite38 call_firefly.ite37))
(define-fun .def_1105 () Bool (or param_e5 .def_1104))
(define-fun .def_1100 () Bool (= call_firefly.ite38 call_firefly.ite33))
(define-fun .def_1101 () Bool (or .def_1096 .def_1100))
(define-fun .def_1095 () Bool (= call_firefly.ite27 call_firefly.ite24))
(define-fun .def_1097 () Bool (or .def_1095 .def_1096))
(define-fun .def_1091 () Bool (= call_firefly.ite26 call_firefly.ite27))
(define-fun .def_1093 () Bool (or .def_1091 param_e5))
(define-fun .def_1098 () Bool (and .def_1093 .def_1097))
(define-fun .def_1102 () Bool (and .def_1098 .def_1101))
(define-fun .def_1106 () Bool (and .def_1102 .def_1105))
(define-fun .def_1087 () Bool (= call_firefly.ite28 call_firefly.ite27))
(define-fun .def_1088 () Bool (or param_e4 .def_1087))
(define-fun .def_1083 () Bool (= call_firefly.ite28 call_firefly.ite23))
(define-fun .def_1084 () Bool (or .def_1079 .def_1083))
(define-fun .def_1078 () Bool (= call_firefly.ite19 call_firefly.ite14))
(define-fun .def_1080 () Bool (or .def_1078 .def_1079))
(define-fun .def_1074 () Bool (= call_firefly.ite19 call_firefly.ite18))
(define-fun .def_1076 () Bool (or .def_1074 param_e4))
(define-fun .def_1081 () Bool (and .def_1076 .def_1080))
(define-fun .def_1085 () Bool (and .def_1081 .def_1084))
(define-fun .def_1089 () Bool (and .def_1085 .def_1088))
(define-fun .def_1069 () Bool (= call_firefly.ite39 call_firefly.ite38))
(define-fun .def_1070 () Bool (or param_e3 .def_1069))
(define-fun .def_1065 () Bool (= call_firefly.ite39 call_firefly.ite32))
(define-fun .def_1066 () Bool (or .def_1054 .def_1065))
(define-fun .def_1061 () Bool (= call_firefly.ite29 call_firefly.ite28))
(define-fun .def_1062 () Bool (or param_e3 .def_1061))
(define-fun .def_1057 () Bool (= call_firefly.ite22 call_firefly.ite29))
(define-fun .def_1058 () Bool (or .def_1054 .def_1057))
(define-fun .def_1053 () Bool (= call_firefly.ite10 call_firefly.ite3))
(define-fun .def_1055 () Bool (or .def_1053 .def_1054))
(define-fun .def_1049 () Bool (= call_firefly.ite10 call_firefly.ite9))
(define-fun .def_1051 () Bool (or .def_1049 param_e3))
(define-fun .def_1056 () Bool (and .def_1051 .def_1055))
(define-fun .def_1059 () Bool (and .def_1056 .def_1058))
(define-fun .def_1063 () Bool (and .def_1059 .def_1062))
(define-fun .def_1067 () Bool (and .def_1063 .def_1066))
(define-fun .def_1071 () Bool (and .def_1067 .def_1070))
(define-fun .def_1044 () Bool (= call_firefly.ite40 call_firefly.ite39))
(define-fun .def_1045 () Bool (or param_e2 .def_1044))
(define-fun .def_1040 () Bool (= call_firefly.ite31 call_firefly.ite40))
(define-fun .def_1041 () Bool (or .def_1026 .def_1040))
(define-fun .def_1035 () Bool (= call_firefly.ite20 call_firefly.ite19))
(define-fun .def_1036 () Bool (or param_e2 .def_1035))
(define-fun .def_1031 () Bool (= call_firefly.ite13 call_firefly.ite20))
(define-fun .def_1032 () Bool (or .def_1026 .def_1031))
(define-fun .def_1025 () Bool (= call_firefly.ite11 call_firefly.ite2))
(define-fun .def_1027 () Bool (or .def_1025 .def_1026))
(define-fun .def_1021 () Bool (= call_firefly.ite11 call_firefly.ite10))
(define-fun .def_1023 () Bool (or .def_1021 param_e2))
(define-fun .def_1028 () Bool (and .def_1023 .def_1027))
(define-fun .def_1033 () Bool (and .def_1028 .def_1032))
(define-fun .def_1037 () Bool (and .def_1033 .def_1036))
(define-fun .def_1042 () Bool (and .def_1037 .def_1041))
(define-fun .def_1046 () Bool (and .def_1042 .def_1045))
(define-fun .def_1016 () Bool (= call_firefly.ite30 call_firefly.ite29))
(define-fun .def_1017 () Bool (or param_e1 .def_1016))
(define-fun .def_1012 () Bool (= call_firefly.ite21 call_firefly.ite30))
(define-fun .def_1013 () Bool (or .def_1007 .def_1012))
(define-fun .def_1006 () Bool (= call_firefly.ite12 call_firefly.ite))
(define-fun .def_1008 () Bool (or .def_1006 .def_1007))
(define-fun .def_1002 () Bool (= call_firefly.ite12 call_firefly.ite11))
(define-fun .def_1004 () Bool (or .def_1002 param_e1))
(define-fun .def_1009 () Bool (and .def_1004 .def_1008))
(define-fun .def_1014 () Bool (and .def_1009 .def_1013))
(define-fun .def_1018 () Bool (and .def_1014 .def_1017))
(define-fun .def_998 () Bool (= procs call_First.First))
(define-fun .def_994 () Bool (= env call_Sofar.Sofar))
(define-fun .def_990 () Bool (= shared call_firefly.shared))
(define-fun .def_987 () Bool (= exclusive call_firefly.exclusive))
(define-fun .def_991 () Bool (and .def_987 .def_990))
(define-fun .def_995 () Bool (and .def_991 .def_994))
(define-fun .def_999 () Bool (and .def_995 .def_998))
(define-fun .def_1019 () Bool (and .def_999 .def_1018))
(define-fun .def_1047 () Bool (and .def_1019 .def_1046))
(define-fun .def_1072 () Bool (and .def_1047 .def_1071))
(define-fun .def_1090 () Bool (and .def_1072 .def_1089))
(define-fun .def_1107 () Bool (and .def_1090 .def_1106))
(define-fun .def_1123 () Bool (and .def_1107 .def_1122))
(define-fun .def_1137 () Bool (and .def_1123 .def_1136))
(define-fun .def_1175 () Bool (and .def_1137 .def_1174))
(define-fun .def_1178 () Bool (and .def_1175 .def_1177))
(define-fun .def_1181 () Bool (and .def_1178 .def_1180))
(define-fun .def_1183 () Bool (and .def_1181 .def_1182))
(define-fun .def_1185 () Bool (and .def_1183 .def_1184))
(define-fun .def_1187 () Bool (and .def_1185 .def_1186))
(define-fun .def_1189 () Bool (and .def_1187 .def_1188))
(define-fun .def_1191 () Bool (and .def_1189 .def_1190))
(define-fun .def_1243 () Bool (and .def_1191 .def_1242))
(define-fun .def_1245 () Bool (and .def_1243 .def_1244))
(define-fun .def_1247 () Bool (and .def_1245 .def_1246))
(define-fun .def_1249 () Bool (and .def_1247 .def_1248))
(define-fun .def_983 () Bool (= param_i_invalid call_First2.flby))
(define-fun .def_980 () Bool (= param_i_invalid call_First.flby))
(define-fun .def_973 () Bool (<= 5 param_i_invalid))
(define-fun .def_974 () Bool (not .def_973))
(define-fun .def_970 () Bool (<= 0 param_i_invalid))
(define-fun .def_972 () Bool (and .def_970 call_excludes8.excludes))
(define-fun .def_975 () Bool (and .def_972 .def_974))
(define-fun .def_977 () Bool (= .def_975 call_Sofar.flby))
(define-fun .def_968 () Bool (= call_firefly.flby5 0))
(define-fun .def_965 () Bool (= call_firefly.flby4 0))
(define-fun .def_962 () Bool (= call_firefly.flby3 0))
(define-fun .def_959 () Bool (= call_firefly.flby2 call_firefly.mem_invalid))
(define-fun .def_955 () Bool (= param_i_invalid call_firefly.flby))
(define-fun .def_950 () Bool (= call_firefly.ite25 0))
(define-fun .def_949 () Bool (not call_firefly.garde8))
(define-fun .def_951 () Bool (or .def_949 .def_950))
(define-fun .def_945 () Bool (= call_firefly.ite15 1))
(define-fun .def_943 () Bool (not call_firefly.garde6))
(define-fun .def_946 () Bool (or .def_943 .def_945))
(define-fun .def_939 () Bool (= call_firefly.ite22 0))
(define-fun .def_937 () Bool (not call_firefly.garde3))
(define-fun .def_940 () Bool (or .def_937 .def_939))
(define-fun .def_932 () Bool (= call_firefly.ite35 call_firefly.ite36))
(define-fun .def_933 () Bool (or .def_923 .def_932))
(define-fun .def_927 () Bool (= call_firefly.ite6 call_firefly.ite7))
(define-fun .def_928 () Bool (or .def_923 .def_927))
(define-fun .def_921 () Bool (= call_firefly.ite25 call_firefly.ite26))
(define-fun .def_924 () Bool (or .def_921 .def_923))
(define-fun .def_929 () Bool (and .def_924 .def_928))
(define-fun .def_934 () Bool (and .def_929 .def_933))
(define-fun .def_913 () Bool (= call_firefly.ite16 call_firefly.ite17))
(define-fun .def_916 () Bool (or .def_913 .def_915))
(define-fun .def_918 () Bool (and .def_916 flby))
(define-fun .def_935 () Bool (and .def_918 .def_934))
(define-fun .def_941 () Bool (and .def_935 .def_940))
(define-fun .def_947 () Bool (and .def_941 .def_946))
(define-fun .def_952 () Bool (and .def_947 .def_951))
(define-fun .def_956 () Bool (and .def_952 .def_955))
(define-fun .def_960 () Bool (and .def_956 .def_959))
(define-fun .def_963 () Bool (and .def_960 .def_962))
(define-fun .def_966 () Bool (and .def_963 .def_965))
(define-fun .def_969 () Bool (and .def_966 .def_968))
(define-fun .def_978 () Bool (and .def_969 .def_977))
(define-fun .def_981 () Bool (and .def_978 .def_980))
(define-fun .def_984 () Bool (and .def_981 .def_983))
(define-fun .def_1250 () Bool (and .def_984 .def_1249))
(assert .def_1250)
